c description: Random 3-CNF over 18 variables and 77 clauses
c generator: CNFgen (0.9.2)
c copyright: (C) 2012-2022 Massimo Lauria <massimo.lauria@uniroma1.it>
c url: https://massimolauria.net/cnfgen
c command line: cnfgen --output CNF_4.28/18_bit_77_215.cnf randkcnf 3 18 77
c
p cnf 18 77
1 2 10 0
4 7 -10 0
3 12 -17 0
2 -5 -15 0
2 5 -16 0
9 12 -13 0
7 10 17 0
-8 -9 -11 0
5 10 15 0
-8 9 10 0
-4 9 -17 0
5 -8 10 0
10 -16 -17 0
-2 8 14 0
-2 9 18 0
-1 -3 -14 0
-8 -13 16 0
2 -15 18 0
-1 -8 11 0
-1 13 18 0
-3 -4 14 0
-1 3 -8 0
-1 10 -18 0
3 6 -18 0
-4 -15 -18 0
4 -17 18 0
-2 -6 -18 0
-2 -11 -13 0
14 16 -17 0
-3 7 17 0
2 4 -10 0
9 10 -18 0
3 13 14 0
3 6 14 0
2 -10 -14 0
4 13 18 0
1 -13 14 0
-7 9 -11 0
-6 -10 -11 0
3 -7 -13 0
-3 -6 -18 0
9 -15 -16 0
1 7 8 0
-1 -16 -18 0
6 -7 17 0
-4 14 -15 0
8 12 -17 0
-9 -14 16 0
-15 -17 -18 0
-6 9 -12 0
-9 12 15 0
-6 -16 -18 0
-6 14 -16 0
8 -13 18 0
-12 16 17 0
6 -8 16 0
-15 -16 18 0
-3 -8 14 0
8 12 -18 0
6 12 -17 0
3 9 14 0
7 -15 -16 0
1 5 15 0
6 7 11 0
-12 13 18 0
6 11 -13 0
5 -9 -13 0
-1 -8 -14 0
-5 -8 17 0
5 11 12 0
1 5 -15 0
5 -10 -13 0
-1 -9 16 0
-7 -8 9 0
1 -2 -13 0
-7 -10 -16 0
-1 3 -15 0
